processors      * * 1

boundary        p p m
units           lj
atom_style      gfmd
atom_modify     sort 0 1.0


#
# Create GFMD lattice
#

lattice         sc 1.0
region          cell block  0 10  0 10  0 1
create_box      1 cell
mass            1 1.0
create_atoms    1 box

displace_atoms  all move 0.5 0.5 0.5 units box


#
# GFMD substrate
#

fix             static_gfmd all gfmd gfmd fcc100 1.0 1 reset_xeq reset_map
fix_modify      static_gfmd energy yes


#
# Random displacements
#

displace_atoms  all random 0.1 0.1 0.1 12472634


#
# Output
#

compute         com all com
thermo          1000
thermo_style    custom step ke pe etotal f_static_gfmd[1] f_static_gfmd[2] f_static_gfmd[3] c_com[1] c_com[2] c_com[3]
thermo_modify   format float "%15.10f" norm no

#dump            xyz all xyz 1000 traj.xyz


#
# Molecular dynamics
#

fix             nve all nve
timestep        0.01
run             10000

write_restart   restart



#
# Reset LAMMPS and reinitialize
#

clear

processors      * * 1

boundary        p p m
units           lj
atom_style      gfmd
atom_modify     sort 0 1.0


#
# Load restart file
#

read_restart    restart


#
# GFMD substrate
#

fix             static_gfmd all gfmd gfmd fcc100 1.0 1
fix_modify      static_gfmd energy yes


#
# Output
#

thermo          1000
thermo_style    custom step ke pe etotal f_static_gfmd[1] f_static_gfmd[2] f_static_gfmd[3]
thermo_modify   format float "%20.10f" norm no

#dump            xyz all xyz 1000 traj.xyz


#
# Molecular dynamics
#

fix             nve all nve
timestep        0.01
run             10000
#run             0


write_restart   restart
