boundary      p p m
units         lj
atom_modify   sort 0 1.0

read_restart  restart

#
# No interaction
#
pair_style    none


#
# Rigid surface
#
fix           rigid all contact/map input64.matrix 2.0 1 expf 0.1 0.01 1.0
fix_modify    rigid energy yes

fix           addforce all addforce 0.0 0.0 -0.01
fix_modify    addforce energy yes


#
# Screen output
#
thermo        100
thermo_style  custom step temp ke pe etotal
thermo_modify format float "%14.8f" norm no


#
# NVE integrator
#
fix           nve all nve


#
# Run simulation
#
run           100000

