processors      * * 1

boundary        p p m
units           lj
atom_style      gfmd
atom_modify     sort 0 1.0

#
# Create GFMD lattice
#

variable        volume equal (2^(3./2))/2
variable        density equal 2.0/${volume} #${volume}*(1.5^3)
lattice         custom ${density} a1 1.0 0.0 0.0 a2 0.0 1.73205080756888 0.0 a3 0.0 0.0 0.816496580927726 basis 0.0 0.0 0.0 basis 0.5 0.5 0.0
region          gf block  0 64  0 37  0 0.5  units lattice
region          cell block  0 64  0 37  -3 3  units lattice
create_box      1 cell
mass            1 1.0
create_atoms    1 region gf

#
# GFMD substrate
#

fix             static_gfmd all gfmd gfmd ft fcc111 1 1.0 pair-potential 1 1.0 height 128 reset_xeq reset_map dumpr_every 1000000
fix_modify      static_gfmd energy yes

#
# Sphere
#

displace_atoms  all move 0.0 0.0 -2.0 units box

fix             sphere all contact/sphere 0 0 99.5 100.0 1.38888888888889 0.890898718140339 1.0
fix_modify      sphere energy yes

#
# Output
#

compute         com all com
thermo          100
thermo_style    custom step fmax fnorm ke pe etotal f_static_gfmd[1] f_static_gfmd[2] f_static_gfmd[3] c_com[1] c_com[2] c_com[3] f_static_gfmd f_sphere[3]
thermo_modify   format float "%15.10f" norm no

#
# Minimize
#

min_style       cg
minimize        0.0 1e-6 1000000 1000000
