# Simulate the full-atom system that the EAM GF example approximates

log log.full

units		metal
boundary        p p f
processors      1 1 1
atom_style	atomic
newton          off

read_data       fulldatafile_MINUSONE

variable lj_to_metal equal 2.5702 # = (Au cell)/(LJ nn cell)= (4.08 nm)/(2^1/6 * 2^1/2 sigma)
variable rcut_interface equal 1.1224620483*${lj_to_metal}

variable rcut_expand equal ${rcut_interface}+4.0

pair_style hybrid eam/alloy lj/expand ${rcut_interface}
pair_coeff   * * eam/alloy Au-Grochola-JCP05.eam.alloy Au Au NULL Au
pair_coeff   1 3 lj/expand    0.0 ${lj_to_metal} 0.0 ${rcut_interface}
pair_coeff   2 3 lj/expand    0.0 ${lj_to_metal} 0.0 ${rcut_interface}
pair_coeff   3 3 lj/expand    0.0 ${lj_to_metal} 0.0 ${rcut_interface}
pair_coeff   3 4 lj/expand    0.0 ${lj_to_metal} 4.0 ${rcut_interface} #expand to decrease corrugation # disabled
pair_modify	shift yes


neighbor        4.0 bin
neigh_modify    every 1 delay 0 check yes
group           rbgroup type 3
group           gfmdgroup type 2 
group           type4 type 4
region          columnregion1 block 0.5 4.6 0.5 4.6 INF INF units box
region          columnregion2 block 2.6 6.7 4.6 6.7 INF INF units box
group           col1group region columnregion1
group           col2group region columnregion2
group           columns union col1group col2group
group           probe intersect columns type4


fix             bottomfix gfmdgroup setforce 0.0 0.0 0.0

thermo		500





dump 3 all image 10 aimag.full.*.jpg fz type adiam 0.8 size 1024 1024 view 90.0 0.0 center s 0.5 0.5 0.5 zoom 2 shiny 1 axes yes 0.8 0.02 
dump_modify 3 backcolor white amap -1.0 1.0 ca 0.0 4 min red 0.0 black 0.000001 navy max blue
dump_modify 3 pad 4

# initialize for pushing
min_style cg
min_modify dmax 0.3*${lj_to_metal} line quadratic
minimize 0.0 1.0e-6 100000 100000
min_style hftn
minimize 0.0 1.0e-6 100000 100000
min_style fire
minimize 0.0 1.0e-6 100000 100000

#variable rbminht equal bound(rbgroup,zmin)
#variable ebmaxht equal bound(type4,zmax)
#variable ebrboverlap equal ${ebmaxht}-${rbminht}+${rcut_expand}-0.3075 # 0.3075 for expand of 4.0
#displace_atoms  rbgroup move 0.01 0.0 ${ebrboverlap} units box # break symmetry

# apply these after surface relaxes
fix             2      probe setforce 0.0 0.0 0.0
fix_modify      2      energy no
fix             fixID1 probe aveforce 0.0 0.0 0.0
fix_modify      fixID1 energy no

variable n loop 0 3
label nloop

undump 3
dump 3 all image 10 aimag.full.*.${n}.jpg fz type adiam 0.8 size 1024 1024 view 90.0 0.0 center s 0.5 0.5 0.5 zoom 2 shiny 1 axes yes 0.8 0.02 
dump_modify 3 backcolor white amap -1.0 1.0 ca 0.0 4 min red 0.0 black 0.000001 navy max blue
dump_modify 3 pad 4

if "$n < 3"  then "variable dstep equal 0.0" else "variable dstep equal -1.6"



#displace_atoms rbgroup move 0 0 ${dstep} units box
#displace_atoms rbgroup move 0 ${dstep} ${dstep} units box
displace_atoms probe move 0 0 ${dstep} units box

min_style cg
min_modify dmax 0.3*${lj_to_metal} line quadratic
minimize 0.0 1.0e-6 100000 100000
min_style hftn
minimize 0.0 1.0e-6 100000 100000
min_style fire
minimize 0.0 1.0e-6 100000 100000


#dump            dumpid type4 custom 1 dump.melt.*.ljfull x y z fx fy fz
#run 0
#undump          dumpid

next n
jump SELF nloop

#pair_coeff  * 3 lj/expand 0.0 ${lj_to_metal} 0.0 0.1
#pair_coeff  3 * lj/expand 0.0 ${lj_to_metal} 0.0 0.1
unfix 2
unfix fixID1
dump           surfdump  type4 custom 1 dumpsurffull x y z fx fy fz
dump           probedump probe custom 1 dumpprobefull x y z fx fy fz
run 0

shell "rm log.lammps"
