processors    1 1 1

boundary      p p m
units         lj
atom_style    gfmd

read_data     initial.lammps
#read_restart restart


#
# Define how many force steps we want to do
#
variable      start_step equal 1
variable      end_step   equal 20
variable      force_step equal 5.0
# Force convergence criterion should be lower than our force step
variable      force_tol  equal 1e-6


#
# Computation
#
jump lammps_compute.in
